GLPSOL: GLPK LP/MIP Solver, v4.65
Parameter(s) specified in the command line:
 --model solver_drone.mod --data solver_drone_data_20.dat --output solver_drone_solution_20_2.log
 --log solver_drone_cmd_output_20_2.log --tmlim 20
Reading model section from solver_drone.mod...
41 lines were read
Reading data section from solver_drone_data_20.dat...
59 lines were read
Generating f...
Generating package_deliverd_once...
Generating package_well_delivered...
Generating time_spent_flying...
Generating autonomy_not_exceeded...
Generating check_time_max...
Model has been successfully generated
GLPK Integer Optimizer, v4.65
1193 rows, 1137 columns, 3463 non-zeros
1137 integer variables, 1134 of which are binary
Preprocessing...
58 rows, 1137 columns, 2328 non-zeros
1137 integer variables, 1134 of which are binary
Scaling...
 A: min|aij| =  1.000e+00  max|aij| =  2.856e+03  ratio =  2.856e+03
GM: min|aij| =  4.803e-01  max|aij| =  2.082e+00  ratio =  4.335e+00
EQ: min|aij| =  2.307e-01  max|aij| =  1.000e+00  ratio =  4.335e+00
2N: min|aij| =  1.250e-01  max|aij| =  1.180e+00  ratio =  9.438e+00
Constructing initial basis...
Size of triangular part is 58
Solving LP relaxation...
GLPK Simplex Optimizer, v4.65
58 rows, 1137 columns, 2328 non-zeros
      0: obj =   0.000000000e+00 inf =   1.152e+03 (1)
     63: obj =   1.843600000e+04 inf =   0.000e+00 (0)
*    64: obj =   1.843600000e+04 inf =   0.000e+00 (0)
OPTIMAL LP SOLUTION FOUND
Integer optimization begins...
Long-step dual simplex will be used
+    64: mip =     not found yet >=              -inf        (1; 0)
+    76: >>>>>   1.865600000e+04 >=   1.843600000e+04   1.2% (13; 0)
+    92: >>>>>   1.855200000e+04 >=   1.843600000e+04   0.6% (26; 1)
+   158: >>>>>   1.852000000e+04 >=   1.843600000e+04   0.5% (67; 7)
+   178: >>>>>   1.850400000e+04 >=   1.843600000e+04   0.4% (75; 13)
+   193: >>>>>   1.848000000e+04 >=   1.843600000e+04   0.2% (78; 20)
+   216: >>>>>   1.846400000e+04 >=   1.843600000e+04   0.2% (89; 27)
+   221: >>>>>   1.845600000e+04 >=   1.843600000e+04   0.1% (88; 30)
+   303: >>>>>   1.844800000e+04 >=   1.843600000e+04 < 0.1% (111; 89)
+  1199: >>>>>   1.844000000e+04 >=   1.843600000e+04 < 0.1% (560; 383)
+ 10597: mip =   1.844000000e+04 >=   1.843600000e+04 < 0.1% (4445; 5052)
+ 18950: mip =   1.844000000e+04 >=   1.843600000e+04 < 0.1% (7252; 9458)
+ 26324: mip =   1.844000000e+04 >=   1.843600000e+04 < 0.1% (9422; 14290)
+ 32455: mip =   1.844000000e+04 >=   1.843600000e+04 < 0.1% (11649; 17491)
TIME LIMIT EXCEEDED; SEARCH TERMINATED
Time used:   20.0 secs
Memory used: 12.4 Mb (13011598 bytes)
The package 1 is delivered by the drone 2 to the house 2
The package 2 is delivered by the drone 1 to the house 2
The package 3 is delivered by the drone 1 to the house 4
The package 4 is delivered by the drone 1 to the house 4
The package 5 is delivered by the drone 2 to the house 4
The package 6 is delivered by the drone 2 to the house 5
The package 7 is delivered by the drone 1 to the house 6
The package 8 is delivered by the drone 2 to the house 6
The package 9 is delivered by the drone 2 to the house 6
The package 10 is delivered by the drone 2 to the house 8
The package 11 is delivered by the drone 2 to the house 8
The package 12 is delivered by the drone 2 to the house 8
The package 13 is delivered by the drone 1 to the house 9
The package 14 is delivered by the drone 1 to the house 9
The package 15 is delivered by the drone 1 to the house 10
The package 16 is delivered by the drone 1 to the house 10
The package 17 is delivered by the drone 1 to the house 11
The package 18 is delivered by the drone 1 to the house 12
The package 19 is delivered by the drone 2 to the house 15
The package 20 is delivered by the drone 2 to the house 16
The package 21 is delivered by the drone 2 to the house 16
The package 22 is delivered by the drone 2 to the house 18
The package 23 is delivered by the drone 1 to the house 18
The package 24 is delivered by the drone 1 to the house 20
The package 25 is delivered by the drone 1 to the house 20
The package 26 is delivered by the drone 2 to the house 21
The package 27 is delivered by the drone 2 to the house 21
Model has been successfully processed
Writing MIP solution to 'solver_drone_solution_20_2.log'...
